id: 268
name: dbir1
group: meszaros/misc
method: 1

Gurobi 7.0.2 (linux64, Matlab) logging started Tue Apr 17 15:57:01 2018


Gurobi 7.0.2 (linux64) logging started Tue Apr 17 15:57:01 2018

Optimize a model with 18804 rows, 27355 columns and 1058605 nonzeros
Coefficient statistics:
  Matrix range     [1e+00, 1e+05]
  Objective range  [1e+00, 1e+00]
  Bounds range     [0e+00, 0e+00]
  RHS range        [1e+00, 1e+05]
Presolve removed 11654 rows and 2493 columns
Presolve time: 0.20s
Presolved: 7150 rows, 24862 columns, 994828 nonzeros

Iteration    Objective       Primal Inf.    Dual Inf.      Time
       0   -8.1424110e+06   3.751978e+01   0.000000e+00      0s
    2128   -8.1067070e+06   0.000000e+00   0.000000e+00      0s

Solved in 2128 iterations and 0.29 seconds
Optimal objective -8.106707000e+06
status: OPTIMAL
